
Gurobi 6.5.2 (win64) logging started 10/28/16 14:25:31

Parameter MIPGap unchanged
   Value: 0.0001  Min: 0.0  Max: 1e+100  Default: 0.0001
Changed value of parameter Threads to 4
   Prev: 0  Min: 0  Max: 1024  Default: 0
Changed value of parameter MIPFocus to 2
   Prev: 0  Min: 0  Max: 3  Default: 0
Changed value of parameter TimeLimit to 7200.0
   Prev: 1e+100  Min: 0.0  Max: 1e+100  Default: 1e+100
Parameter TimeLimit unchanged
   Value: 7200.0  Min: 0.0  Max: 1e+100  Default: 1e+100
Optimize a model with 1 rows, 50 columns and 49 nonzeros
Coefficient statistics:
  Matrix range    [1e+00, 1e+00]
  Objective range [1e+00, 1e+00]
  Bounds range    [1e+00, 1e+00]
  RHS range       [1e+00, 1e+00]
Found heuristic solution: objective 0
Presolve removed 1 rows and 50 columns
Presolve time: 0.00s
Presolve: All rows and columns removed

Explored 0 nodes (0 simplex iterations) in 0.00 seconds
Thread count was 1 (of 4 available processors)

Optimal solution found (tolerance 1.00e-04)
Best objective 0.000000000000e+00, best bound 0.000000000000e+00, gap 0.0%
Changed value of parameter TimeLimit to 7197.70600009
   Prev: 7200.0  Min: 0.0  Max: 1e+100  Default: 1e+100
Optimize a model with 2 rows, 50 columns and 72 nonzeros
Coefficient statistics:
  Matrix range    [2e-02, 1e+00]
  Objective range [1e+00, 1e+00]
  Bounds range    [1e+00, 1e+00]
  RHS range       [2e-01, 1e+00]
Found heuristic solution: objective 0.24
Presolve removed 2 rows and 50 columns
Presolve time: 0.00s
Presolve: All rows and columns removed

Explored 0 nodes (0 simplex iterations) in 0.00 seconds
Thread count was 1 (of 4 available processors)

Optimal solution found (tolerance 1.00e-04)
Best objective 0.000000000000e+00, best bound 0.000000000000e+00, gap 0.0%
Changed value of parameter TimeLimit to 7197.62000012
   Prev: 7197.70600009  Min: 0.0  Max: 1e+100  Default: 1e+100
Optimize a model with 3 rows, 50 columns and 85 nonzeros
Coefficient statistics:
  Matrix range    [2e-02, 1e+00]
  Objective range [1e+00, 1e+00]
  Bounds range    [1e+00, 1e+00]
  RHS range       [2e-01, 1e+00]
Found heuristic solution: objective 0.24
Presolve removed 3 rows and 50 columns
Presolve time: 0.00s
Presolve: All rows and columns removed

Explored 0 nodes (0 simplex iterations) in 0.00 seconds
Thread count was 1 (of 4 available processors)

Optimal solution found (tolerance 1.00e-04)
Best objective 0.000000000000e+00, best bound 0.000000000000e+00, gap 0.0%
Changed value of parameter TimeLimit to 7197.08899999
   Prev: 7197.62000012  Min: 0.0  Max: 1e+100  Default: 1e+100
Optimize a model with 4 rows, 50 columns and 103 nonzeros
Coefficient statistics:
  Matrix range    [2e-02, 1e+00]
  Objective range [1e+00, 1e+00]
  Bounds range    [1e+00, 1e+00]
  RHS range       [2e-01, 1e+00]
Found heuristic solution: objective 0.24
Presolve removed 4 rows and 50 columns
Presolve time: 0.00s
Presolve: All rows and columns removed

Explored 0 nodes (0 simplex iterations) in 0.00 seconds
Thread count was 1 (of 4 available processors)

Optimal solution found (tolerance 1.00e-04)
Best objective 0.000000000000e+00, best bound 0.000000000000e+00, gap 0.0%

Gurobi 6.5.2 (win64) logging started 10/28/16 14:32:14

Parameter MIPGap unchanged
   Value: 0.0001  Min: 0.0  Max: 1e+100  Default: 0.0001
Changed value of parameter Threads to 4
   Prev: 0  Min: 0  Max: 1024  Default: 0
Changed value of parameter MIPFocus to 2
   Prev: 0  Min: 0  Max: 3  Default: 0
Changed value of parameter TimeLimit to 7200.0
   Prev: 1e+100  Min: 0.0  Max: 1e+100  Default: 1e+100
Changed value of parameter TimeLimit to 7199.99899983
   Prev: 7200.0  Min: 0.0  Max: 1e+100  Default: 1e+100
Optimize a model with 1 rows, 50 columns and 49 nonzeros
Coefficient statistics:
  Matrix range    [1e+00, 1e+00]
  Objective range [1e+00, 1e+00]
  Bounds range    [1e+00, 1e+00]
  RHS range       [1e+00, 1e+00]
Found heuristic solution: objective 0
Presolve removed 1 rows and 50 columns
Presolve time: 0.00s
Presolve: All rows and columns removed

Explored 0 nodes (0 simplex iterations) in 0.00 seconds
Thread count was 1 (of 4 available processors)

Optimal solution found (tolerance 1.00e-04)
Best objective 0.000000000000e+00, best bound 0.000000000000e+00, gap 0.0%
Changed value of parameter TimeLimit to 7197.80099988
   Prev: 7199.99899983  Min: 0.0  Max: 1e+100  Default: 1e+100
Optimize a model with 2 rows, 50 columns and 72 nonzeros
Coefficient statistics:
  Matrix range    [2e-02, 1e+00]
  Objective range [1e+00, 1e+00]
  Bounds range    [1e+00, 1e+00]
  RHS range       [2e-01, 1e+00]
Found heuristic solution: objective 0.24
Presolve removed 2 rows and 50 columns
Presolve time: 0.00s
Presolve: All rows and columns removed

Explored 0 nodes (0 simplex iterations) in 0.00 seconds
Thread count was 1 (of 4 available processors)

Optimal solution found (tolerance 1.00e-04)
Best objective 0.000000000000e+00, best bound 0.000000000000e+00, gap 0.0%
Changed value of parameter TimeLimit to 7197.70499992
   Prev: 7197.80099988  Min: 0.0  Max: 1e+100  Default: 1e+100
Optimize a model with 3 rows, 50 columns and 85 nonzeros
Coefficient statistics:
  Matrix range    [2e-02, 1e+00]
  Objective range [1e+00, 1e+00]
  Bounds range    [1e+00, 1e+00]
  RHS range       [2e-01, 1e+00]
Found heuristic solution: objective 0.24
Presolve removed 3 rows and 50 columns
Presolve time: 0.00s
Presolve: All rows and columns removed

Explored 0 nodes (0 simplex iterations) in 0.00 seconds
Thread count was 1 (of 4 available processors)

Optimal solution found (tolerance 1.00e-04)
Best objective 0.000000000000e+00, best bound 0.000000000000e+00, gap 0.0%
Changed value of parameter TimeLimit to 7197.1869998
   Prev: 7197.70499992  Min: 0.0  Max: 1e+100  Default: 1e+100
Optimize a model with 4 rows, 50 columns and 103 nonzeros
Coefficient statistics:
  Matrix range    [2e-02, 1e+00]
  Objective range [1e+00, 1e+00]
  Bounds range    [1e+00, 1e+00]
  RHS range       [2e-01, 1e+00]
Found heuristic solution: objective 0.24
Presolve removed 4 rows and 50 columns
Presolve time: 0.00s
Presolve: All rows and columns removed

Explored 0 nodes (0 simplex iterations) in 0.00 seconds
Thread count was 1 (of 4 available processors)

Optimal solution found (tolerance 1.00e-04)
Best objective 0.000000000000e+00, best bound 0.000000000000e+00, gap 0.0%

Gurobi 6.5.2 (win64) logging started 10/28/16 14:59:09

Parameter MIPGap unchanged
   Value: 0.0001  Min: 0.0  Max: 1e+100  Default: 0.0001
Changed value of parameter Threads to 4
   Prev: 0  Min: 0  Max: 1024  Default: 0
Changed value of parameter MIPFocus to 2
   Prev: 0  Min: 0  Max: 3  Default: 0
Changed value of parameter TimeLimit to 7200.0
   Prev: 1e+100  Min: 0.0  Max: 1e+100  Default: 1e+100
Parameter TimeLimit unchanged
   Value: 7200.0  Min: 0.0  Max: 1e+100  Default: 1e+100
Optimize a model with 1 rows, 50 columns and 49 nonzeros
Coefficient statistics:
  Matrix range    [1e+00, 1e+00]
  Objective range [1e+00, 1e+00]
  Bounds range    [1e+00, 1e+00]
  RHS range       [1e+00, 1e+00]
Found heuristic solution: objective 0
Presolve removed 1 rows and 50 columns
Presolve time: 0.00s
Presolve: All rows and columns removed

Explored 0 nodes (0 simplex iterations) in 0.00 seconds
Thread count was 1 (of 4 available processors)

Optimal solution found (tolerance 1.00e-04)
Best objective 0.000000000000e+00, best bound 0.000000000000e+00, gap 0.0%
Changed value of parameter TimeLimit to 7197.54099989
   Prev: 7200.0  Min: 0.0  Max: 1e+100  Default: 1e+100
Optimize a model with 2 rows, 50 columns and 72 nonzeros
Coefficient statistics:
  Matrix range    [2e-02, 1e+00]
  Objective range [1e+00, 1e+00]
  Bounds range    [1e+00, 1e+00]
  RHS range       [2e-01, 1e+00]
Found heuristic solution: objective 0.24
Presolve removed 2 rows and 50 columns
Presolve time: 0.00s
Presolve: All rows and columns removed

Explored 0 nodes (0 simplex iterations) in 0.00 seconds
Thread count was 1 (of 4 available processors)

Optimal solution found (tolerance 1.00e-04)
Best objective 0.000000000000e+00, best bound 0.000000000000e+00, gap 0.0%
Changed value of parameter TimeLimit to 7197.44099998
   Prev: 7197.54099989  Min: 0.0  Max: 1e+100  Default: 1e+100
Optimize a model with 3 rows, 50 columns and 85 nonzeros
Coefficient statistics:
  Matrix range    [2e-02, 1e+00]
  Objective range [1e+00, 1e+00]
  Bounds range    [1e+00, 1e+00]
  RHS range       [2e-01, 1e+00]
Found heuristic solution: objective 0.24
Presolve removed 3 rows and 50 columns
Presolve time: 0.00s
Presolve: All rows and columns removed

Explored 0 nodes (0 simplex iterations) in 0.00 seconds
Thread count was 1 (of 4 available processors)

Optimal solution found (tolerance 1.00e-04)
Best objective 0.000000000000e+00, best bound 0.000000000000e+00, gap 0.0%
Changed value of parameter TimeLimit to 7196.90999985
   Prev: 7197.44099998  Min: 0.0  Max: 1e+100  Default: 1e+100
Optimize a model with 4 rows, 50 columns and 103 nonzeros
Coefficient statistics:
  Matrix range    [2e-02, 1e+00]
  Objective range [1e+00, 1e+00]
  Bounds range    [1e+00, 1e+00]
  RHS range       [2e-01, 1e+00]
Found heuristic solution: objective 0.24
Presolve removed 4 rows and 50 columns
Presolve time: 0.00s
Presolve: All rows and columns removed

Explored 0 nodes (0 simplex iterations) in 0.00 seconds
Thread count was 1 (of 4 available processors)

Optimal solution found (tolerance 1.00e-04)
Best objective 0.000000000000e+00, best bound 0.000000000000e+00, gap 0.0%

Gurobi 6.5.2 (win64) logging started 11/01/16 08:25:02

Parameter MIPGap unchanged
   Value: 0.0001  Min: 0.0  Max: 1e+100  Default: 0.0001
Changed value of parameter Threads to 4
   Prev: 0  Min: 0  Max: 1024  Default: 0
Changed value of parameter MIPFocus to 2
   Prev: 0  Min: 0  Max: 3  Default: 0
Changed value of parameter TimeLimit to 7200.0
   Prev: 1e+100  Min: 0.0  Max: 1e+100  Default: 1e+100
Parameter TimeLimit unchanged
   Value: 7200.0  Min: 0.0  Max: 1e+100  Default: 1e+100
Optimize a model with 1 rows, 50 columns and 49 nonzeros
Coefficient statistics:
  Matrix range    [1e+00, 1e+00]
  Objective range [1e+00, 1e+00]
  Bounds range    [1e+00, 1e+00]
  RHS range       [1e+00, 1e+00]
Found heuristic solution: objective 0
Presolve removed 1 rows and 50 columns
Presolve time: 0.00s
Presolve: All rows and columns removed

Explored 0 nodes (0 simplex iterations) in 0.00 seconds
Thread count was 1 (of 4 available processors)

Optimal solution found (tolerance 1.00e-04)
Best objective 0.000000000000e+00, best bound 0.000000000000e+00, gap 0.0%
Changed value of parameter TimeLimit to 7198.08800006
   Prev: 7200.0  Min: 0.0  Max: 1e+100  Default: 1e+100
Optimize a model with 2 rows, 50 columns and 72 nonzeros
Coefficient statistics:
  Matrix range    [2e-02, 1e+00]
  Objective range [1e+00, 1e+00]
  Bounds range    [1e+00, 1e+00]
  RHS range       [2e-01, 1e+00]
Found heuristic solution: objective 0.24
Presolve removed 2 rows and 50 columns
Presolve time: 0.00s
Presolve: All rows and columns removed

Explored 0 nodes (0 simplex iterations) in 0.00 seconds
Thread count was 1 (of 4 available processors)

Optimal solution found (tolerance 1.00e-04)
Best objective 0.000000000000e+00, best bound 0.000000000000e+00, gap 0.0%
Changed value of parameter TimeLimit to 7198.00900006
   Prev: 7198.08800006  Min: 0.0  Max: 1e+100  Default: 1e+100
Optimize a model with 3 rows, 50 columns and 85 nonzeros
Coefficient statistics:
  Matrix range    [2e-02, 1e+00]
  Objective range [1e+00, 1e+00]
  Bounds range    [1e+00, 1e+00]
  RHS range       [2e-01, 1e+00]
Found heuristic solution: objective 0.24
Presolve removed 3 rows and 50 columns
Presolve time: 0.00s
Presolve: All rows and columns removed

Explored 0 nodes (0 simplex iterations) in 0.00 seconds
Thread count was 1 (of 4 available processors)

Optimal solution found (tolerance 1.00e-04)
Best objective 0.000000000000e+00, best bound 0.000000000000e+00, gap 0.0%
Changed value of parameter TimeLimit to 7197.56299996
   Prev: 7198.00900006  Min: 0.0  Max: 1e+100  Default: 1e+100
Optimize a model with 4 rows, 50 columns and 103 nonzeros
Coefficient statistics:
  Matrix range    [2e-02, 1e+00]
  Objective range [1e+00, 1e+00]
  Bounds range    [1e+00, 1e+00]
  RHS range       [2e-01, 1e+00]
Found heuristic solution: objective 0.24
Presolve removed 4 rows and 50 columns
Presolve time: 0.00s
Presolve: All rows and columns removed

Explored 0 nodes (0 simplex iterations) in 0.00 seconds
Thread count was 1 (of 4 available processors)

Optimal solution found (tolerance 1.00e-04)
Best objective 0.000000000000e+00, best bound 0.000000000000e+00, gap 0.0%

Gurobi 6.5.2 (win64) logging started 11/01/16 11:34:15

Parameter MIPGap unchanged
   Value: 0.0001  Min: 0.0  Max: 1e+100  Default: 0.0001
Changed value of parameter Threads to 4
   Prev: 0  Min: 0  Max: 1024  Default: 0
Changed value of parameter MIPFocus to 2
   Prev: 0  Min: 0  Max: 3  Default: 0
Changed value of parameter TimeLimit to 7200.0
   Prev: 1e+100  Min: 0.0  Max: 1e+100  Default: 1e+100
Parameter TimeLimit unchanged
   Value: 7200.0  Min: 0.0  Max: 1e+100  Default: 1e+100
Optimize a model with 1 rows, 50 columns and 49 nonzeros
Coefficient statistics:
  Matrix range    [1e+00, 1e+00]
  Objective range [1e+00, 1e+00]
  Bounds range    [1e+00, 1e+00]
  RHS range       [1e+00, 1e+00]
Found heuristic solution: objective 0
Presolve removed 1 rows and 50 columns
Presolve time: 0.00s
Presolve: All rows and columns removed

Explored 0 nodes (0 simplex iterations) in 0.00 seconds
Thread count was 1 (of 4 available processors)

Optimal solution found (tolerance 1.00e-04)
Best objective 0.000000000000e+00, best bound 0.000000000000e+00, gap 0.0%
Changed value of parameter TimeLimit to 7198.06800008
   Prev: 7200.0  Min: 0.0  Max: 1e+100  Default: 1e+100
Optimize a model with 2 rows, 50 columns and 72 nonzeros
Coefficient statistics:
  Matrix range    [2e-02, 1e+00]
  Objective range [1e+00, 1e+00]
  Bounds range    [1e+00, 1e+00]
  RHS range       [2e-01, 1e+00]
Found heuristic solution: objective 0.24
Presolve removed 2 rows and 50 columns
Presolve time: 0.00s
Presolve: All rows and columns removed

Explored 0 nodes (0 simplex iterations) in 0.00 seconds
Thread count was 1 (of 4 available processors)

Optimal solution found (tolerance 1.00e-04)
Best objective 0.000000000000e+00, best bound 0.000000000000e+00, gap 0.0%
Changed value of parameter TimeLimit to 7197.98300004
   Prev: 7198.06800008  Min: 0.0  Max: 1e+100  Default: 1e+100
Optimize a model with 3 rows, 50 columns and 85 nonzeros
Coefficient statistics:
  Matrix range    [2e-02, 1e+00]
  Objective range [1e+00, 1e+00]
  Bounds range    [1e+00, 1e+00]
  RHS range       [2e-01, 1e+00]
Found heuristic solution: objective 0.24
Presolve removed 3 rows and 50 columns
Presolve time: 0.00s
Presolve: All rows and columns removed

Explored 0 nodes (0 simplex iterations) in 0.00 seconds
Thread count was 1 (of 4 available processors)

Optimal solution found (tolerance 1.00e-04)
Best objective 0.000000000000e+00, best bound 0.000000000000e+00, gap 0.0%
Changed value of parameter TimeLimit to 7197.53399992
   Prev: 7197.98300004  Min: 0.0  Max: 1e+100  Default: 1e+100
Optimize a model with 4 rows, 50 columns and 103 nonzeros
Coefficient statistics:
  Matrix range    [2e-02, 1e+00]
  Objective range [1e+00, 1e+00]
  Bounds range    [1e+00, 1e+00]
  RHS range       [2e-01, 1e+00]
Found heuristic solution: objective 0.24
Presolve removed 4 rows and 50 columns
Presolve time: 0.00s
Presolve: All rows and columns removed

Explored 0 nodes (0 simplex iterations) in 0.00 seconds
Thread count was 1 (of 4 available processors)

Optimal solution found (tolerance 1.00e-04)
Best objective 0.000000000000e+00, best bound 0.000000000000e+00, gap 0.0%

Gurobi 6.5.2 (win64) logging started 11/07/16 13:08:16

Parameter MIPGap unchanged
   Value: 0.0001  Min: 0.0  Max: 1e+100  Default: 0.0001
Changed value of parameter Threads to 4
   Prev: 0  Min: 0  Max: 1024  Default: 0
Changed value of parameter MIPFocus to 2
   Prev: 0  Min: 0  Max: 3  Default: 0
Changed value of parameter TimeLimit to 7200.0
   Prev: 1e+100  Min: 0.0  Max: 1e+100  Default: 1e+100
Parameter TimeLimit unchanged
   Value: 7200.0  Min: 0.0  Max: 1e+100  Default: 1e+100
Optimize a model with 1 rows, 50 columns and 49 nonzeros
Coefficient statistics:
  Matrix range    [1e+00, 1e+00]
  Objective range [1e+00, 1e+00]
  Bounds range    [1e+00, 1e+00]
  RHS range       [1e+00, 1e+00]
Found heuristic solution: objective 0
Presolve removed 1 rows and 50 columns
Presolve time: 0.00s
Presolve: All rows and columns removed

Explored 0 nodes (0 simplex iterations) in 0.00 seconds
Thread count was 1 (of 4 available processors)

Optimal solution found (tolerance 1.00e-04)
Best objective 0.000000000000e+00, best bound 0.000000000000e+00, gap 0.0%
Changed value of parameter TimeLimit to 7197.63899994
   Prev: 7200.0  Min: 0.0  Max: 1e+100  Default: 1e+100
Optimize a model with 2 rows, 50 columns and 72 nonzeros
Coefficient statistics:
  Matrix range    [2e-02, 1e+00]
  Objective range [1e+00, 1e+00]
  Bounds range    [1e+00, 1e+00]
  RHS range       [2e-01, 1e+00]
Found heuristic solution: objective 0.24
Presolve removed 2 rows and 50 columns
Presolve time: 0.00s
Presolve: All rows and columns removed

Explored 0 nodes (0 simplex iterations) in 0.00 seconds
Thread count was 1 (of 4 available processors)

Optimal solution found (tolerance 1.00e-04)
Best objective 0.000000000000e+00, best bound 0.000000000000e+00, gap 0.0%
Changed value of parameter TimeLimit to 7197.55800009
   Prev: 7197.63899994  Min: 0.0  Max: 1e+100  Default: 1e+100
Optimize a model with 3 rows, 50 columns and 85 nonzeros
Coefficient statistics:
  Matrix range    [2e-02, 1e+00]
  Objective range [1e+00, 1e+00]
  Bounds range    [1e+00, 1e+00]
  RHS range       [2e-01, 1e+00]
Found heuristic solution: objective 0.24
Presolve removed 3 rows and 50 columns
Presolve time: 0.00s
Presolve: All rows and columns removed

Explored 0 nodes (0 simplex iterations) in 0.00 seconds
Thread count was 1 (of 4 available processors)

Optimal solution found (tolerance 1.00e-04)
Best objective 0.000000000000e+00, best bound 0.000000000000e+00, gap 0.0%
Changed value of parameter TimeLimit to 7197.12000012
   Prev: 7197.55800009  Min: 0.0  Max: 1e+100  Default: 1e+100
Optimize a model with 4 rows, 50 columns and 103 nonzeros
Coefficient statistics:
  Matrix range    [2e-02, 1e+00]
  Objective range [1e+00, 1e+00]
  Bounds range    [1e+00, 1e+00]
  RHS range       [2e-01, 1e+00]
Found heuristic solution: objective 0.24
Presolve removed 4 rows and 50 columns
Presolve time: 0.00s
Presolve: All rows and columns removed

Explored 0 nodes (0 simplex iterations) in 0.00 seconds
Thread count was 1 (of 4 available processors)

Optimal solution found (tolerance 1.00e-04)
Best objective 0.000000000000e+00, best bound 0.000000000000e+00, gap 0.0%

Gurobi 6.5.2 (win64) logging started 11/07/16 14:37:21

Parameter MIPGap unchanged
   Value: 0.0001  Min: 0.0  Max: 1e+100  Default: 0.0001
Changed value of parameter Threads to 4
   Prev: 0  Min: 0  Max: 1024  Default: 0
Changed value of parameter MIPFocus to 2
   Prev: 0  Min: 0  Max: 3  Default: 0
Changed value of parameter TimeLimit to 7200.0
   Prev: 1e+100  Min: 0.0  Max: 1e+100  Default: 1e+100
Parameter TimeLimit unchanged
   Value: 7200.0  Min: 0.0  Max: 1e+100  Default: 1e+100
Optimize a model with 1 rows, 50 columns and 49 nonzeros
Coefficient statistics:
  Matrix range    [1e+00, 1e+00]
  Objective range [1e+00, 1e+00]
  Bounds range    [1e+00, 1e+00]
  RHS range       [1e+00, 1e+00]
Found heuristic solution: objective 0
Presolve removed 1 rows and 50 columns
Presolve time: 0.00s
Presolve: All rows and columns removed

Explored 0 nodes (0 simplex iterations) in 0.00 seconds
Thread count was 1 (of 4 available processors)

Optimal solution found (tolerance 1.00e-04)
Best objective 0.000000000000e+00, best bound 0.000000000000e+00, gap 0.0%
Changed value of parameter TimeLimit to 7198.15300012
   Prev: 7200.0  Min: 0.0  Max: 1e+100  Default: 1e+100
Optimize a model with 2 rows, 50 columns and 72 nonzeros
Coefficient statistics:
  Matrix range    [2e-02, 1e+00]
  Objective range [1e+00, 1e+00]
  Bounds range    [1e+00, 1e+00]
  RHS range       [2e-01, 1e+00]
Found heuristic solution: objective 0.24
Presolve removed 2 rows and 50 columns
Presolve time: 0.00s
Presolve: All rows and columns removed

Explored 0 nodes (0 simplex iterations) in 0.00 seconds
Thread count was 1 (of 4 available processors)

Optimal solution found (tolerance 1.00e-04)
Best objective 0.000000000000e+00, best bound 0.000000000000e+00, gap 0.0%
Changed value of parameter TimeLimit to 7198.07700014
   Prev: 7198.15300012  Min: 0.0  Max: 1e+100  Default: 1e+100
Optimize a model with 3 rows, 50 columns and 85 nonzeros
Coefficient statistics:
  Matrix range    [2e-02, 1e+00]
  Objective range [1e+00, 1e+00]
  Bounds range    [1e+00, 1e+00]
  RHS range       [2e-01, 1e+00]
Found heuristic solution: objective 0.24
Presolve removed 3 rows and 50 columns
Presolve time: 0.00s
Presolve: All rows and columns removed

Explored 0 nodes (0 simplex iterations) in 0.00 seconds
Thread count was 1 (of 4 available processors)

Optimal solution found (tolerance 1.00e-04)
Best objective 0.000000000000e+00, best bound 0.000000000000e+00, gap 0.0%
Changed value of parameter TimeLimit to 7197.63900018
   Prev: 7198.07700014  Min: 0.0  Max: 1e+100  Default: 1e+100
Optimize a model with 4 rows, 50 columns and 103 nonzeros
Coefficient statistics:
  Matrix range    [2e-02, 1e+00]
  Objective range [1e+00, 1e+00]
  Bounds range    [1e+00, 1e+00]
  RHS range       [2e-01, 1e+00]
Found heuristic solution: objective 0.24
Presolve removed 4 rows and 50 columns
Presolve time: 0.00s
Presolve: All rows and columns removed

Explored 0 nodes (0 simplex iterations) in 0.00 seconds
Thread count was 1 (of 4 available processors)

Optimal solution found (tolerance 1.00e-04)
Best objective 0.000000000000e+00, best bound 0.000000000000e+00, gap 0.0%

Gurobi 6.5.2 (win64) logging started 11/07/16 14:38:15

Parameter MIPGap unchanged
   Value: 0.0001  Min: 0.0  Max: 1e+100  Default: 0.0001
Changed value of parameter Threads to 4
   Prev: 0  Min: 0  Max: 1024  Default: 0
Changed value of parameter MIPFocus to 2
   Prev: 0  Min: 0  Max: 3  Default: 0
Changed value of parameter TimeLimit to 7200.0
   Prev: 1e+100  Min: 0.0  Max: 1e+100  Default: 1e+100
Parameter TimeLimit unchanged
   Value: 7200.0  Min: 0.0  Max: 1e+100  Default: 1e+100
Optimize a model with 1 rows, 50 columns and 49 nonzeros
Coefficient statistics:
  Matrix range    [1e+00, 1e+00]
  Objective range [1e+00, 1e+00]
  Bounds range    [1e+00, 1e+00]
  RHS range       [1e+00, 1e+00]
Found heuristic solution: objective 0
Presolve removed 1 rows and 50 columns
Presolve time: 0.00s
Presolve: All rows and columns removed

Explored 0 nodes (0 simplex iterations) in 0.00 seconds
Thread count was 1 (of 4 available processors)

Optimal solution found (tolerance 1.00e-04)
Best objective 0.000000000000e+00, best bound 0.000000000000e+00, gap 0.0%
Changed value of parameter TimeLimit to 7198.17699981
   Prev: 7200.0  Min: 0.0  Max: 1e+100  Default: 1e+100
Optimize a model with 2 rows, 50 columns and 72 nonzeros
Coefficient statistics:
  Matrix range    [2e-02, 1e+00]
  Objective range [1e+00, 1e+00]
  Bounds range    [1e+00, 1e+00]
  RHS range       [2e-01, 1e+00]
Found heuristic solution: objective 0.24
Presolve removed 2 rows and 50 columns
Presolve time: 0.00s
Presolve: All rows and columns removed

Explored 0 nodes (0 simplex iterations) in 0.00 seconds
Thread count was 1 (of 4 available processors)

Optimal solution found (tolerance 1.00e-04)
Best objective 0.000000000000e+00, best bound 0.000000000000e+00, gap 0.0%
Changed value of parameter TimeLimit to 7198.102
   Prev: 7198.17699981  Min: 0.0  Max: 1e+100  Default: 1e+100
Optimize a model with 3 rows, 50 columns and 85 nonzeros
Coefficient statistics:
  Matrix range    [2e-02, 1e+00]
  Objective range [1e+00, 1e+00]
  Bounds range    [1e+00, 1e+00]
  RHS range       [2e-01, 1e+00]
Found heuristic solution: objective 0.24
Presolve removed 3 rows and 50 columns
Presolve time: 0.00s
Presolve: All rows and columns removed

Explored 0 nodes (0 simplex iterations) in 0.00 seconds
Thread count was 1 (of 4 available processors)

Optimal solution found (tolerance 1.00e-04)
Best objective 0.000000000000e+00, best bound 0.000000000000e+00, gap 0.0%
Changed value of parameter TimeLimit to 7197.67999983
   Prev: 7198.102  Min: 0.0  Max: 1e+100  Default: 1e+100
Optimize a model with 4 rows, 50 columns and 103 nonzeros
Coefficient statistics:
  Matrix range    [2e-02, 1e+00]
  Objective range [1e+00, 1e+00]
  Bounds range    [1e+00, 1e+00]
  RHS range       [2e-01, 1e+00]
Found heuristic solution: objective 0.24
Presolve removed 4 rows and 50 columns
Presolve time: 0.00s
Presolve: All rows and columns removed

Explored 0 nodes (0 simplex iterations) in 0.00 seconds
Thread count was 1 (of 4 available processors)

Optimal solution found (tolerance 1.00e-04)
Best objective 0.000000000000e+00, best bound 0.000000000000e+00, gap 0.0%

Gurobi 6.5.2 (win64) logging started 11/08/16 11:04:58

Parameter MIPGap unchanged
   Value: 0.0001  Min: 0.0  Max: 1e+100  Default: 0.0001
Changed value of parameter Threads to 4
   Prev: 0  Min: 0  Max: 1024  Default: 0
Changed value of parameter MIPFocus to 2
   Prev: 0  Min: 0  Max: 3  Default: 0
Changed value of parameter TimeLimit to 7200.0
   Prev: 1e+100  Min: 0.0  Max: 1e+100  Default: 1e+100
Parameter TimeLimit unchanged
   Value: 7200.0  Min: 0.0  Max: 1e+100  Default: 1e+100
Optimize a model with 1 rows, 50 columns and 49 nonzeros
Coefficient statistics:
  Matrix range    [1e+00, 1e+00]
  Objective range [1e+00, 1e+00]
  Bounds range    [1e+00, 1e+00]
  RHS range       [1e+00, 1e+00]
Found heuristic solution: objective 0
Presolve removed 1 rows and 50 columns
Presolve time: 0.00s
Presolve: All rows and columns removed

Explored 0 nodes (0 simplex iterations) in 0.00 seconds
Thread count was 1 (of 4 available processors)

Optimal solution found (tolerance 1.00e-04)
Best objective 0.000000000000e+00, best bound 0.000000000000e+00, gap 0.0%
Changed value of parameter TimeLimit to 7197.71799994
   Prev: 7200.0  Min: 0.0  Max: 1e+100  Default: 1e+100
Optimize a model with 2 rows, 50 columns and 72 nonzeros
Coefficient statistics:
  Matrix range    [2e-02, 1e+00]
  Objective range [1e+00, 1e+00]
  Bounds range    [1e+00, 1e+00]
  RHS range       [2e-01, 1e+00]
Found heuristic solution: objective 0.24
Presolve removed 2 rows and 50 columns
Presolve time: 0.00s
Presolve: All rows and columns removed

Explored 0 nodes (0 simplex iterations) in 0.00 seconds
Thread count was 1 (of 4 available processors)

Optimal solution found (tolerance 1.00e-04)
Best objective 0.000000000000e+00, best bound 0.000000000000e+00, gap 0.0%
Changed value of parameter TimeLimit to 7197.63800001
   Prev: 7197.71799994  Min: 0.0  Max: 1e+100  Default: 1e+100
Optimize a model with 3 rows, 50 columns and 85 nonzeros
Coefficient statistics:
  Matrix range    [2e-02, 1e+00]
  Objective range [1e+00, 1e+00]
  Bounds range    [1e+00, 1e+00]
  RHS range       [2e-01, 1e+00]
Found heuristic solution: objective 0.24
Presolve removed 3 rows and 50 columns
Presolve time: 0.00s
Presolve: All rows and columns removed

Explored 0 nodes (0 simplex iterations) in 0.00 seconds
Thread count was 1 (of 4 available processors)

Optimal solution found (tolerance 1.00e-04)
Best objective 0.000000000000e+00, best bound 0.000000000000e+00, gap 0.0%
Changed value of parameter TimeLimit to 7197.21600008
   Prev: 7197.63800001  Min: 0.0  Max: 1e+100  Default: 1e+100
Optimize a model with 4 rows, 50 columns and 103 nonzeros
Coefficient statistics:
  Matrix range    [2e-02, 1e+00]
  Objective range [1e+00, 1e+00]
  Bounds range    [1e+00, 1e+00]
  RHS range       [2e-01, 1e+00]
Found heuristic solution: objective 0.24
Presolve removed 4 rows and 50 columns
Presolve time: 0.00s
Presolve: All rows and columns removed

Explored 0 nodes (0 simplex iterations) in 0.00 seconds
Thread count was 1 (of 4 available processors)

Optimal solution found (tolerance 1.00e-04)
Best objective 0.000000000000e+00, best bound 0.000000000000e+00, gap 0.0%

Gurobi 6.5.2 (win64) logging started 11/08/16 11:08:37

Changed value of parameter LazyConstraints to 1
   Prev: 0  Min: 0  Max: 1  Default: 0
Parameter MIPGap unchanged
   Value: 0.0001  Min: 0.0  Max: 1e+100  Default: 0.0001
Changed value of parameter Threads to 4
   Prev: 0  Min: 0  Max: 1024  Default: 0
Changed value of parameter MIPFocus to 2
   Prev: 0  Min: 0  Max: 3  Default: 0
Changed value of parameter TimeLimit to 7200.0
   Prev: 1e+100  Min: 0.0  Max: 1e+100  Default: 1e+100
Optimize a model with 546 rows, 431 columns and 1430 nonzeros
Coefficient statistics:
  Matrix range    [1e+00, 1e+00]
  Objective range [1e+00, 2e+00]
  Bounds range    [1e+00, 1e+00]
  RHS range       [1e+00, 1e+00]
Presolve removed 272 rows and 0 columns
Presolve time: 0.00s
Presolved: 274 rows, 431 columns, 1158 nonzeros
Variable types: 382 continuous, 49 integer (49 binary)
Presolved: 274 rows, 431 columns, 1158 nonzeros


Root relaxation: objective 0.000000e+00, 2 iterations, 0.00 seconds

    Nodes    |    Current Node    |     Objective Bounds      |     Work
 Expl Unexpl |  Obj  Depth IntInf | Incumbent    BestBd   Gap | It/Node Time

*    0     0               0       0.0000000    0.00000  0.00%     -    0s

Cutting planes:
  Lazy constraints: 5

Explored 0 nodes (42 simplex iterations) in 0.12 seconds
Thread count was 4 (of 4 available processors)

Optimal solution found (tolerance 1.00e-04)
Best objective 0.000000000000e+00, best bound 0.000000000000e+00, gap 0.0%

Gurobi 6.5.2 (win64) logging started 11/11/16 13:03:28

Changed value of parameter LazyConstraints to 1
   Prev: 0  Min: 0  Max: 1  Default: 0
Parameter MIPGap unchanged
   Value: 0.0001  Min: 0.0  Max: 1e+100  Default: 0.0001
Changed value of parameter Threads to 4
   Prev: 0  Min: 0  Max: 1024  Default: 0
Changed value of parameter MIPFocus to 2
   Prev: 0  Min: 0  Max: 3  Default: 0
Changed value of parameter TimeLimit to 7200.0
   Prev: 1e+100  Min: 0.0  Max: 1e+100  Default: 1e+100
Optimize a model with 546 rows, 431 columns and 1430 nonzeros
Coefficient statistics:
  Matrix range    [1e+00, 1e+00]
  Objective range [1e+00, 2e+00]
  Bounds range    [1e+00, 1e+00]
  RHS range       [1e+00, 1e+00]
Presolve removed 272 rows and 0 columns
Presolve time: 0.00s
Presolved: 274 rows, 431 columns, 1158 nonzeros
Variable types: 382 continuous, 49 integer (49 binary)
Presolved: 274 rows, 431 columns, 1158 nonzeros


Root relaxation: objective 0.000000e+00, 2 iterations, 0.00 seconds

    Nodes    |    Current Node    |     Objective Bounds      |     Work
 Expl Unexpl |  Obj  Depth IntInf | Incumbent    BestBd   Gap | It/Node Time

*    0     0               0       0.0000000    0.00000  0.00%     -    0s

Cutting planes:
  Lazy constraints: 5

Explored 0 nodes (42 simplex iterations) in 0.13 seconds
Thread count was 4 (of 4 available processors)

Optimal solution found (tolerance 1.00e-04)
Best objective 0.000000000000e+00, best bound 0.000000000000e+00, gap 0.0%
